[VALIDATOR STDOUT]
Checking plan: /home/jfan5/Safety-gen/runs/benchmark/optic/delivery_20260129_163024/delivery/optic_results/delivery_size30_packages1_seed30001.plan
Plan executed successfully - checking goal
Plan valid
Final value: 196 

Successful plans:
Value: 196
 /home/jfan5/Safety-gen/runs/benchmark/optic/delivery_20260129_163024/delivery/optic_results/delivery_size30_packages1_seed30001.plan 196
